Version identifier: 20.1.0.0 | 2020-11-10 | 9bedb6d68
CPXPARAM_Threads                                 1
CPXPARAM_TimeLimit                               7200
CPXPARAM_MIP_Tolerances_MIPGap                   0
Generic callback                                 0x60
1 of 1 MIP starts provided solutions.
MIP start 'm1' defined initial solution with objective 2159.7790.
Tried aggregator 1 time.
Reduced MIP has 1 rows, 801 columns, and 800 nonzeros.
Reduced MIP has 800 binaries, 0 generals, 0 SOSs, and 0 indicators.
Presolve time = 0.00 sec. (0.24 ticks)
Probing time = 0.00 sec. (0.09 ticks)
Tried aggregator 1 time.
Reduced MIP has 1 rows, 801 columns, and 800 nonzeros.
Reduced MIP has 800 binaries, 0 generals, 0 SOSs, and 0 indicators.
Presolve time = 0.00 sec. (0.25 ticks)
Probing time = 0.00 sec. (0.09 ticks)
MIP emphasis: balance optimality and feasibility.
MIP search method: dynamic search.
Parallel mode: none, using 1 thread.
Root relaxation solution time = 0.00 sec. (0.17 ticks)

        Nodes                                         Cuts/
   Node  Left     Objective  IInf  Best Integer    Best Bound    ItCnt     Gap

*     0+    0                         2159.7790     4368.0000           102.24%
      0     0     2651.5199     2     2159.7790     4368.0000        0  102.24%
      0     0     2430.7787     4     2159.7790 UserPurge2: 1       21   12.55%
      0     0     2329.4510     4     2159.7790 UserPurge2: 1       39    7.86%
      0     0     2305.9712     4     2159.7790 UserPurge2: 1       46    6.77%
      0     0     2274.0043     3     2159.7790 UserPurge2: 1       55    5.29%
*     0+    0                         2167.0998     2274.0043             4.93%

Repeating presolve.
Tried aggregator 1 time.
MIP Presolve eliminated 0 rows and 315 columns.
Reduced MIP has 1 rows, 486 columns, and 485 nonzeros.
Reduced MIP has 485 binaries, 0 generals, 0 SOSs, and 0 indicators.
Presolve time = 0.00 sec. (0.21 ticks)
Probing time = 0.00 sec. (0.05 ticks)
Tried aggregator 1 time.
Reduced MIP has 1 rows, 486 columns, and 485 nonzeros.
Reduced MIP has 485 binaries, 0 generals, 0 SOSs, and 0 indicators.
Presolve time = 0.00 sec. (0.15 ticks)
Represolve time = 0.00 sec. (1.29 ticks)
Probing time = 0.00 sec. (0.05 ticks)
MIP emphasis: balance optimality and feasibility.
MIP search method: dynamic search.
Parallel mode: none, using 1 thread.
Root relaxation solution time = 0.00 sec. (0.84 ticks)

        Nodes                                         Cuts/
   Node  Left     Objective  IInf  Best Integer    Best Bound    ItCnt     Gap

*     0+    0                         2167.0998     2274.0043             4.93%
      0     0     2272.0295     5     2167.0998     2272.0295       80    4.84%
      0     0     2263.8973     3     2167.0998 UserPurge2: 1       89    4.47%
      0     0     2252.6917     3     2167.0998 UserPurge2: 1       94    3.95%
*     0+    0                         2168.1764     2252.6917             3.90%
      0     0     2249.0331     4     2168.1764 UserPurge2: 1       96    3.73%
      0     0     2237.2984     5     2168.1764 UserPurge2: 1      106    3.19%
*     0+    0                         2173.5229     2237.2984             2.93%
      0     0     2232.0645     5     2173.5229 UserPurge2: 1      115    2.69%
*     0+    0                         2183.7780     2232.0645             2.21%
      0     0     2228.6974     6     2183.7780 UserPurge2: 1      124    2.06%
      0     0     2218.8751     7     2183.7780 UserPurge2: 1      142    1.61%
      0     2     2218.8751     7     2183.7780     2218.7811      142    1.60%
Elapsed time = 23.82 sec. (22.18 ticks, tree = 0.01 MB, solutions = 5)
*     2     0      integral     0     2184.0000     2184.0000      477    0.00%

User cuts applied:  83

Root node processing (before b&c):
  Real time             =   23.82 sec. (22.33 ticks)
Sequential b&c:
  Real time             =    8.70 sec. (34.44 ticks)
                          ------------
Total (root+branch&cut) =   32.52 sec. (56.78 ticks)
@Parameters: 
is_S_cut                                true
is_add_all_yinF                         true
is_start_value                          true
is_usercut                              true
is_visualization                        false
uc_only_rootnode                        false

data                                    Qi
fn                                      data/Qi/instance_800_800.csv
mode                                    NewSubmodular
solver                                  cplex

p                                       2
r                                       2

EPS                                     1.0e-06
EPS_vio                                 1.0e-04
beta                                    0.10
gap                                     0.00
nodelimit                               Inf
timelimit                               7200.00


@PrintInfos
ItCnt: 477
Current gap: 0.00 %
Termination Status: OPTIMAL
Primal Status: FEASIBLE_POINT
Solve Time: 32.52 sec
Objective Value: 2184.000000
Number of Nodes:      3

CutInfo: [phase] num / time (sec) 
ZLP             [phase1]     0 / 0.00 [rLC]     0 / 0.00 [rUC]     0 / 0.00 [sLC]     0 / 0.00 [sUC]     0 / 0.00 
OldSubmodular   [phase1]     0 / 0.00 [rLC]     0 / 0.00 [rUC]     0 / 0.00 [sLC]     0 / 0.00 [sUC]     0 / 0.00 
NewSubmodular   [phase1]     0 / 0.00 [rLC]    19 / 19.98 [rUC]    18 / 1.82 [sLC]     0 / 1.89 [sUC]    74 / 6.76 
PMP             [phase1]     0 / 0.00 [rLC]     7 / 17.28 [rUC]     0 / 0.00 [sLC]     1 / 1.87 [sUC]     0 / 0.00 
Separation Round: [phase1] 0  [rLC] 20  [rUC] 13  [sLC] 1  [sUC] 40
Root Best Bound 2184.000000
Root Best Integer: 2184.000000
Best Bound: 2184.000000
Best Integer: 2184.000000

